50
120
98
98
93
93
93
92
92
92
92
90
89
86
86
85
85
84
83
83
83
81
81
78
77
77
75
74
71
70
70
68
66
66
65
65
63
62
61
61
59
57
50
50
49
49
47
44
40
32
31
30
